WARNING: for repeatability, setting FPU to use double precision
============================[ Problem Statistics ]=============================
|                                                                             |
|  Number of variables:        225590                                         |
|  Number of clauses:          514269                                         |
|  Parse time:                   0.27 s                                       |
|                                                                             |
============================[ Search Statistics ]==============================
| Conflicts |          ORIGINAL         |          LEARNT          | Progress |
|           |    Vars  Clauses Literals |    Limit  Clauses Lit/Cl |          |
===============================================================================
|       100 |  123224   491315  1105254 |   180148      100     12 | 45.377 % |
|       250 |  123224   491315  1105254 |   198163      250     15 | 45.377 % |
|       475 |  123224   491315  1105254 |   217980      475     29 | 45.377 % |
|       812 |  123224   491315  1105254 |   239778      812     35 | 45.377 % |
|      1318 |  123224   491315  1105254 |   263755     1318     34 | 45.377 % |
===============================================================================
restarts              : 10
conflicts             : 1493           (982 /sec)
decisions             : 24864          (0.00 % random) (16357 /sec)
propagations          : 5067988        (3333994 /sec)
conflict literals     : 50939          (5.13 % deleted)
Memory used           : 57.00 MB
CPU time              : 1.52009 s

SATISFIABLE
